unsat
(:max-memory          18.42
 :memory              18.42
 :num-allocs          39984
 :rlimit-count        3326
 :solve-eqs-elim-vars 2
 :solve-eqs-steps     5
 :time                0.00
 :total-time          0.02)
